80
150
105	2
104	4
103	5
101	1
100	1
99	5
98	5
97	4
96	5
95	6
94	3
92	3
91	2
89	2
88	2
86	3
85	3
84	1
83	2
82	2
81	2
79	4
78	1
77	3
76	2
75	4
74	2
73	1
72	1
71	3
69	2
68	3
67	1
66	2
65	2
64	1
63	1
62	2
61	4
59	1
58	2
57	4
56	4
55	1
54	2
53	4
52	1
50	3
49	2
48	2
47	1
46	3
45	4
44	1
43	3
42	3
41	3
39	2
38	1
37	2
36	4
35	3
34	3
33	1
32	4
30	1
29	2
28	5
27	4
26	1
25	3
24	2
23	1
21	3
20	1
19	1
18	5
17	2
16	2
15	1
